p cnf 9 27
2 -5 4 0
8 -3 4 -4 0
8 -6 -1 0
6 -2 -9 0
8 2 0
-2 0
4 0
1 0
4 -1 0
-8 -5 4 -3 0
-3 0
-9 0
3 4 6 7 0
9 0
6 0
1 0
8 3 -4 7 0
9 -5 0
9 5 0
9 2 3 1 0
5 0
-6 5 6 -2 0
9 0
-8 8 -6 0
-8 0
-5 -3 0
6 0
